c 2-SAT control (sanity-only)
c Generated by mu_sat_difficulty_scale.py
p cnf 20 40
4 -20 0
-12 15 0
11 8 0
18 -11 0
5 -1 0
-6 12 0
-18 -17 0
-16 15 0
10 -4 0
-9 8 0
-1 10 0
20 -14 0
20 -9 0
-11 14 0
-11 -12 0
-18 -7 0
6 15 0
-1 4 0
8 -10 0
-19 -10 0
-5 -10 0
-4 -12 0
1 -3 0
18 -15 0
19 18 0
-18 -3 0
-3 -7 0
-4 -5 0
11 7 0
-4 9 0
-4 16 0
-13 3 0
12 3 0
7 16 0
-11 4 0
16 -1 0
-6 -17 0
8 20 0
19 -14 0
-17 -20 0
